10
0 60 61 51 52 64 77 54 53 83 
60 0 69 58 98 51 85 70 89 68 
61 69 0 77 90 74 99 96 82 59 
51 58 77 0 54 86 72 82 63 73 
52 98 90 54 0 59 97 77 50 75 
64 51 74 86 59 0 74 89 53 76 
77 85 99 72 97 74 0 54 66 76 
54 70 96 82 77 89 54 0 59 99 
53 89 82 63 50 53 66 59 0 62 
83 68 59 73 75 76 76 99 62 0 
